min: c;

c = 3.56435134228762 * u1_t7_h4 + 3.90570031817197 * u1_t7_h5 + 3.94496280764973 * u1_t5_h6 + 3.94496280764973 * u1_t7_h6 + 4.41371880016406 * u1_t5_h7 + 4.41371880016406 * u1_t7_h7 + 4.41371880016406 * u1_t9_h7 + 5.25072364470154 * u1_t5_h8 + 5.25072364470154 * u1_t7_h8 + 5.25072364470154 * u1_t9_h8 + 5.25072364470154 * u1_t10_h8 + 4.80538001913112 * u1_t5_h9 + 4.80538001913112 * u1_t7_h9 + 4.80538001913112 * u1_t9_h9 + 4.80538001913112 * u1_t10_h9 + 5.65363694489972 * u1_t5_h10 + 5.65363694489972 * u1_t7_h10 + 5.65363694489972 * u1_t9_h10 + 5.65363694489972 * u1_t10_h10 + 4.02525276696594 * u1_t5_h11 + 4.02525276696594 * u1_t9_h11 + 4.02525276696594 * u1_t10_h11 + 6.56005863858866 * u1_t4_h12 + 6.56005863858866 * u1_t5_h12 + 6.56005863858866 * u1_t8_h12 + 6.56005863858866 * u1_t9_h12 + 6.56005863858866 * u1_t10_h12 + 4.06930486469513 * u1_t4_h13 + 4.06930486469513 * u1_t8_h13 + 4.06930486469513 * u1_t9_h13 + 4.06930486469513 * u1_t10_h13 + 5.84421507283807 * u1_t4_h14 + 5.84421507283807 * u1_t8_h14 + 5.84421507283807 * u1_t9_h14 + 5.84421507283807 * u1_t10_h14 + 6.06226429657942 * u1_t4_h15 + 6.06226429657942 * u1_t8_h15 + 5.65812153643335 * u1_t4_h16 + 5.65812153643335 * u1_t8_h16 + 6.66731117626041 * u1_t4_h17 + 6.66731117626041 * u1_t8_h17 + 6.14461568006626 * u1_t2_h18 + 6.14461568006626 * u1_t4_h18 + 6.14461568006626 * u1_t6_h18 + 6.14461568006626 * u1_t8_h18 + 5.22742085817324 * u1_t2_h19 + 5.22742085817324 * u1_t3_h19 + 5.22742085817324 * u1_t4_h19 + 5.22742085817324 * u1_t6_h19 + 5.29413514377261 * u1_t1_h20 + 5.29413514377261 * u1_t2_h20 + 5.29413514377261 * u1_t3_h20 + 5.29413514377261 * u1_t4_h20 + 5.29413514377261 * u1_t6_h20 + 5.57752776441896 * u1_t1_h21 + 5.57752776441896 * u1_t2_h21 + 5.57752776441896 * u1_t3_h21 + 5.25150746395772 * u1_t1_h22 + 5.25150746395772 * u1_t2_h22 + 5.90280059559634 * u1_t1_h23 + 5.90280059559634 * u1_t2_h23;
0 <= u1_t1_h20 <= 1;
0 <= u1_t1_h21 <= 1;
0 <= u1_t1_h22 <= 1;
0 <= u1_t1_h23 <= 1;
u1_t1_h20 + u1_t1_h21 + u1_t1_h22 + u1_t1_h23 = 1;
0 <= u1_t2_h18 <= 1;
0 <= u1_t2_h19 <= 1;
0 <= u1_t2_h20 <= 1;
0 <= u1_t2_h21 <= 1;
0 <= u1_t2_h22 <= 1;
0 <= u1_t2_h23 <= 1;
u1_t2_h18 + u1_t2_h19 + u1_t2_h20 + u1_t2_h21 + u1_t2_h22 + u1_t2_h23 = 2;
0 <= u1_t3_h19 <= 1;
0 <= u1_t3_h20 <= 1;
0 <= u1_t3_h21 <= 1;
u1_t3_h19 + u1_t3_h20 + u1_t3_h21 = 1;
0 <= u1_t4_h12 <= 1;
0 <= u1_t4_h13 <= 1;
0 <= u1_t4_h14 <= 1;
0 <= u1_t4_h15 <= 1;
0 <= u1_t4_h16 <= 1;
0 <= u1_t4_h17 <= 1;
0 <= u1_t4_h18 <= 1;
0 <= u1_t4_h19 <= 1;
0 <= u1_t4_h20 <= 1;
u1_t4_h12 + u1_t4_h13 + u1_t4_h14 + u1_t4_h15 + u1_t4_h16 + u1_t4_h17 + u1_t4_h18 + u1_t4_h19 + u1_t4_h20 = 3;
0 <= u1_t5_h6 <= 1;
0 <= u1_t5_h7 <= 1;
0 <= u1_t5_h8 <= 1;
0 <= u1_t5_h9 <= 1;
0 <= u1_t5_h10 <= 1;
0 <= u1_t5_h11 <= 1;
0 <= u1_t5_h12 <= 1;
u1_t5_h6 + u1_t5_h7 + u1_t5_h8 + u1_t5_h9 + u1_t5_h10 + u1_t5_h11 + u1_t5_h12 = 3;
0 <= u1_t6_h18 <= 1;
0 <= u1_t6_h19 <= 1;
0 <= u1_t6_h20 <= 1;
u1_t6_h18 + u1_t6_h19 + u1_t6_h20 = 2;
0 <= u1_t7_h4 <= 1;
0 <= u1_t7_h5 <= 1;
0 <= u1_t7_h6 <= 1;
0 <= u1_t7_h7 <= 1;
0 <= u1_t7_h8 <= 1;
0 <= u1_t7_h9 <= 1;
0 <= u1_t7_h10 <= 1;
u1_t7_h4 + u1_t7_h5 + u1_t7_h6 + u1_t7_h7 + u1_t7_h8 + u1_t7_h9 + u1_t7_h10 = 2;
0 <= u1_t8_h12 <= 1;
0 <= u1_t8_h13 <= 1;
0 <= u1_t8_h14 <= 1;
0 <= u1_t8_h15 <= 1;
0 <= u1_t8_h16 <= 1;
0 <= u1_t8_h17 <= 1;
0 <= u1_t8_h18 <= 1;
u1_t8_h12 + u1_t8_h13 + u1_t8_h14 + u1_t8_h15 + u1_t8_h16 + u1_t8_h17 + u1_t8_h18 = 2;
0 <= u1_t9_h7 <= 1;
0 <= u1_t9_h8 <= 1;
0 <= u1_t9_h9 <= 1;
0 <= u1_t9_h10 <= 1;
0 <= u1_t9_h11 <= 1;
0 <= u1_t9_h12 <= 1;
0 <= u1_t9_h13 <= 1;
0 <= u1_t9_h14 <= 1;
u1_t9_h7 + u1_t9_h8 + u1_t9_h9 + u1_t9_h10 + u1_t9_h11 + u1_t9_h12 + u1_t9_h13 + u1_t9_h14 = 3;
0 <= u1_t10_h8 <= 1;
0 <= u1_t10_h9 <= 1;
0 <= u1_t10_h10 <= 1;
0 <= u1_t10_h11 <= 1;
0 <= u1_t10_h12 <= 1;
0 <= u1_t10_h13 <= 1;
0 <= u1_t10_h14 <= 1;
u1_t10_h8 + u1_t10_h9 + u1_t10_h10 + u1_t10_h11 + u1_t10_h12 + u1_t10_h13 + u1_t10_h14 = 3;
